p cnf 200 1110
-101 -48 0
-101 10 0
-101 -13 0
-101 69 0
-101 46 0
-101 29 0
-101 -7 0
-101 24 0
-101 -40 0
-101 -92 0
101 48 -10 13 -69 -46 -29 7 -24 40 92 0
-102 -63 0
-102 19 0
-102 29 0
-102 14 0
-102 100 0
-102 82 0
-102 -91 0
-102 -41 0
-102 -66 0
-102 18 0
102 63 -19 -29 -14 -100 -82 91 41 66 -18 0
-103 -2 0
-103 81 0
-103 37 0
-103 86 0
-103 27 0
-103 70 0
-103 -68 0
-103 23 0
-103 -82 0
-103 -60 0
103 2 -81 -37 -86 -27 -70 68 -23 82 60 0
-104 23 0
-104 12 0
-104 19 0
-104 -25 0
-104 -28 0
-104 -10 0
-104 88 0
-104 95 0
-104 53 0
-104 -37 0
104 -23 -12 -19 25 28 10 -88 -95 -53 37 0
-105 -41 0
-105 81 0
-105 -80 0
-105 9 0
-105 90 0
-105 -94 0
-105 -50 0
-105 86 0
-105 -77 0
-105 -26 0
105 41 -81 80 -9 -90 94 50 -86 77 26 0
-106 88 0
-106 48 0
-106 24 0
-106 82 0
-106 16 0
-106 99 0
-106 74 0
-106 39 0
-106 69 0
-106 75 0
106 -88 -48 -24 -82 -16 -99 -74 -39 -69 -75 0
-107 55 0
-107 35 0
-107 -74 0
-107 -64 0
-107 7 0
-107 -82 0
-107 -90 0
-107 -26 0
-107 -98 0
-107 6 0
107 -55 -35 74 64 -7 82 90 26 98 -6 0
-108 62 0
-108 30 0
-108 3 0
-108 -100 0
-108 -20 0
-108 39 0
-108 -96 0
-108 28 0
-108 86 0
-108 81 0
108 -62 -30 -3 100 20 -39 96 -28 -86 -81 0
-109 -2 0
-109 67 0
-109 -57 0
-109 10 0
-109 91 0
-109 -92 0
-109 -30 0
-109 3 0
-109 -94 0
-109 -38 0
109 2 -67 57 -10 -91 92 30 -3 94 38 0
-110 -60 0
-110 82 0
-110 12 0
-110 52 0
-110 -7 0
-110 -3 0
-110 67 0
-110 -20 0
-110 -65 0
-110 26 0
110 60 -82 -12 -52 7 3 -67 20 65 -26 0
101 102 103 104 105 106 107 108 109 110 0
-111 69 0
-111 66 0
-111 -24 0
-111 -6 0
-111 -75 0
-111 -9 0
-111 -10 0
-111 63 0
-111 -38 0
-111 47 0
111 -69 -66 24 6 75 9 10 -63 38 -47 0
-112 82 0
-112 54 0
-112 -59 0
-112 19 0
-112 -48 0
-112 14 0
-112 -76 0
-112 -64 0
-112 -78 0
-112 -40 0
112 -82 -54 59 -19 48 -14 76 64 78 40 0
-113 -70 0
-113 44 0
-113 86 0
-113 -47 0
-113 -90 0
-113 27 0
-113 -58 0
-113 -65 0
-113 97 0
-113 -61 0
113 70 -44 -86 47 90 -27 58 65 -97 61 0
-114 93 0
-114 -52 0
-114 21 0
-114 -59 0
-114 -88 0
-114 -57 0
-114 2 0
-114 90 0
-114 86 0
-114 48 0
114 -93 52 -21 59 88 57 -2 -90 -86 -48 0
-115 -30 0
-115 -48 0
-115 -91 0
-115 49 0
-115 68 0
-115 88 0
-115 65 0
-115 -79 0
-115 29 0
-115 37 0
115 30 48 91 -49 -68 -88 -65 79 -29 -37 0
-116 -89 0
-116 17 0
-116 -90 0
-116 19 0
-116 -51 0
-116 -84 0
-116 59 0
-116 -81 0
-116 69 0
-116 65 0
116 89 -17 90 -19 51 84 -59 81 -69 -65 0
-117 37 0
-117 -4 0
-117 -12 0
-117 45 0
-117 -85 0
-117 50 0
-117 -70 0
-117 71 0
-117 6 0
-117 -40 0
117 -37 4 12 -45 85 -50 70 -71 -6 40 0
-118 17 0
-118 -47 0
-118 70 0
-118 62 0
-118 -65 0
-118 -15 0
-118 -61 0
-118 -98 0
-118 -49 0
-118 -84 0
118 -17 47 -70 -62 65 15 61 98 49 84 0
-119 -39 0
-119 72 0
-119 -7 0
-119 -92 0
-119 -14 0
-119 -79 0
-119 -26 0
-119 -19 0
-119 5 0
-119 -95 0
119 39 -72 7 92 14 79 26 19 -5 95 0
-120 19 0
-120 -81 0
-120 2 0
-120 -13 0
-120 -85 0
-120 9 0
-120 -5 0
-120 57 0
-120 -55 0
-120 -64 0
120 -19 81 -2 13 85 -9 5 -57 55 64 0
111 112 113 114 115 116 117 118 119 120 0
-121 36 0
-121 -5 0
-121 -68 0
-121 10 0
-121 -78 0
-121 -59 0
-121 -30 0
-121 42 0
-121 -94 0
-121 -67 0
121 -36 5 68 -10 78 59 30 -42 94 67 0
-122 -62 0
-122 67 0
-122 43 0
-122 63 0
-122 37 0
-122 -33 0
-122 -20 0
-122 1 0
-122 46 0
-122 83 0
122 62 -67 -43 -63 -37 33 20 -1 -46 -83 0
-123 14 0
-123 -23 0
-123 92 0
-123 83 0
-123 -73 0
-123 17 0
-123 -52 0
-123 63 0
-123 47 0
-123 64 0
123 -14 23 -92 -83 73 -17 52 -63 -47 -64 0
-124 88 0
-124 -57 0
-124 -83 0
-124 -82 0
-124 -29 0
-124 92 0
-124 -55 0
-124 -10 0
-124 45 0
-124 28 0
124 -88 57 83 82 29 -92 55 10 -45 -28 0
-125 2 0
-125 36 0
-125 97 0
-125 10 0
-125 -23 0
-125 -83 0
-125 -71 0
-125 -49 0
-125 -59 0
-125 17 0
125 -2 -36 -97 -10 23 83 71 49 59 -17 0
-126 -100 0
-126 69 0
-126 22 0
-126 -90 0
-126 -19 0
-126 31 0
-126 98 0
-126 81 0
-126 92 0
-126 -78 0
126 100 -69 -22 90 19 -31 -98 -81 -92 78 0
-127 17 0
-127 -37 0
-127 -5 0
-127 59 0
-127 -47 0
-127 48 0
-127 12 0
-127 81 0
-127 89 0
-127 18 0
127 -17 37 5 -59 47 -48 -12 -81 -89 -18 0
-128 22 0
-128 26 0
-128 -47 0
-128 39 0
-128 -77 0
-128 -43 0
-128 -14 0
-128 64 0
-128 71 0
-128 24 0
128 -22 -26 47 -39 77 43 14 -64 -71 -24 0
-129 -63 0
-129 -70 0
-129 -16 0
-129 -49 0
-129 89 0
-129 -19 0
-129 -79 0
-129 57 0
-129 -98 0
-129 -62 0
129 63 70 16 49 -89 19 79 -57 98 62 0
-130 81 0
-130 43 0
-130 -27 0
-130 -83 0
-130 -84 0
-130 -99 0
-130 66 0
-130 -75 0
-130 77 0
-130 13 0
130 -81 -43 27 83 84 99 -66 75 -77 -13 0
121 122 123 124 125 126 127 128 129 130 0
-131 35 0
-131 57 0
-131 -88 0
-131 -24 0
-131 -23 0
-131 -10 0
-131 -41 0
-131 81 0
-131 -43 0
-131 -32 0
131 -35 -57 88 24 23 10 41 -81 43 32 0
-132 28 0
-132 12 0
-132 29 0
-132 -10 0
-132 -72 0
-132 -26 0
-132 -27 0
-132 22 0
-132 50 0
-132 83 0
132 -28 -12 -29 10 72 26 27 -22 -50 -83 0
-133 39 0
-133 -93 0
-133 -23 0
-133 7 0
-133 10 0
-133 -25 0
-133 69 0
-133 -42 0
-133 -8 0
-133 -86 0
133 -39 93 23 -7 -10 25 -69 42 8 86 0
-134 -14 0
-134 96 0
-134 53 0
-134 45 0
-134 7 0
-134 -28 0
-134 -22 0
-134 -83 0
-134 -9 0
-134 84 0
134 14 -96 -53 -45 -7 28 22 83 9 -84 0
-135 28 0
-135 6 0
-135 -19 0
-135 -87 0
-135 84 0
-135 -14 0
-135 -57 0
-135 -94 0
-135 -25 0
-135 -49 0
135 -28 -6 19 87 -84 14 57 94 25 49 0
-136 82 0
-136 15 0
-136 4 0
-136 -11 0
-136 47 0
-136 -1 0
-136 10 0
-136 18 0
-136 29 0
-136 -53 0
136 -82 -15 -4 11 -47 1 -10 -18 -29 53 0
-137 21 0
-137 35 0
-137 -86 0
-137 -37 0
-137 74 0
-137 94 0
-137 56 0
-137 32 0
-137 -9 0
-137 -77 0
137 -21 -35 86 37 -74 -94 -56 -32 9 77 0
-138 84 0
-138 31 0
-138 -25 0
-138 -18 0
-138 43 0
-138 -62 0
-138 -59 0
-138 -64 0
-138 -48 0
-138 -89 0
138 -84 -31 25 18 -43 62 59 64 48 89 0
-139 -94 0
-139 -9 0
-139 -80 0
-139 35 0
-139 46 0
-139 66 0
-139 92 0
-139 -13 0
-139 -91 0
-139 -57 0
139 94 9 80 -35 -46 -66 -92 13 91 57 0
-140 -66 0
-140 3 0
-140 -18 0
-140 -41 0
-140 -72 0
-140 -97 0
-140 76 0
-140 25 0
-140 -39 0
-140 95 0
140 66 -3 18 41 72 97 -76 -25 39 -95 0
131 132 133 134 135 136 137 138 139 140 0
-141 49 0
-141 -17 0
-141 52 0
-141 -85 0
-141 -22 0
-141 7 0
-141 66 0
-141 12 0
-141 30 0
-141 -6 0
141 -49 17 -52 85 22 -7 -66 -12 -30 6 0
-142 33 0
-142 30 0
-142 81 0
-142 58 0
-142 -48 0
-142 -93 0
-142 3 0
-142 34 0
-142 96 0
-142 -77 0
142 -33 -30 -81 -58 48 93 -3 -34 -96 77 0
-143 -73 0
-143 16 0
-143 -42 0
-143 88 0
-143 -75 0
-143 -28 0
-143 52 0
-143 -37 0
-143 99 0
-143 -41 0
143 73 -16 42 -88 75 28 -52 37 -99 41 0
-144 8 0
-144 53 0
-144 32 0
-144 -61 0
-144 -11 0
-144 -15 0
-144 -27 0
-144 5 0
-144 -39 0
-144 68 0
144 -8 -53 -32 61 11 15 27 -5 39 -68 0
-145 74 0
-145 14 0
-145 25 0
-145 -79 0
-145 -7 0
-145 -92 0
-145 78 0
-145 43 0
-145 -68 0
-145 -19 0
145 -74 -14 -25 79 7 92 -78 -43 68 19 0
-146 26 0
-146 -67 0
-146 -18 0
-146 88 0
-146 32 0
-146 -96 0
-146 -25 0
-146 69 0
-146 51 0
-146 35 0
146 -26 67 18 -88 -32 96 25 -69 -51 -35 0
-147 5 0
-147 41 0
-147 31 0
-147 -10 0
-147 -76 0
-147 63 0
-147 56 0
-147 71 0
-147 52 0
-147 -96 0
147 -5 -41 -31 10 76 -63 -56 -71 -52 96 0
-148 97 0
-148 32 0
-148 41 0
-148 95 0
-148 -34 0
-148 11 0
-148 49 0
-148 -56 0
-148 43 0
-148 -83 0
148 -97 -32 -41 -95 34 -11 -49 56 -43 83 0
-149 -10 0
-149 33 0
-149 42 0
-149 37 0
-149 43 0
-149 -58 0
-149 -52 0
-149 -56 0
-149 86 0
-149 18 0
149 10 -33 -42 -37 -43 58 52 56 -86 -18 0
-150 71 0
-150 -37 0
-150 15 0
-150 -91 0
-150 41 0
-150 -10 0
-150 87 0
-150 -82 0
-150 -39 0
-150 -34 0
150 -71 37 -15 91 -41 10 -87 82 39 34 0
141 142 143 144 145 146 147 148 149 150 0
-151 72 0
-151 45 0
-151 89 0
-151 25 0
-151 84 0
-151 59 0
-151 34 0
-151 -75 0
-151 28 0
-151 -62 0
151 -72 -45 -89 -25 -84 -59 -34 75 -28 62 0
-152 50 0
-152 24 0
-152 75 0
-152 -14 0
-152 -12 0
-152 -86 0
-152 -7 0
-152 79 0
-152 -20 0
-152 19 0
152 -50 -24 -75 14 12 86 7 -79 20 -19 0
-153 75 0
-153 82 0
-153 9 0
-153 -56 0
-153 -86 0
-153 40 0
-153 68 0
-153 -96 0
-153 41 0
-153 -43 0
153 -75 -82 -9 56 86 -40 -68 96 -41 43 0
-154 18 0
-154 81 0
-154 -4 0
-154 1 0
-154 -54 0
-154 94 0
-154 -53 0
-154 36 0
-154 72 0
-154 51 0
154 -18 -81 4 -1 54 -94 53 -36 -72 -51 0
-155 -19 0
-155 69 0
-155 -90 0
-155 60 0
-155 56 0
-155 11 0
-155 -51 0
-155 -58 0
-155 59 0
-155 30 0
155 19 -69 90 -60 -56 -11 51 58 -59 -30 0
-156 78 0
-156 -7 0
-156 10 0
-156 -32 0
-156 -83 0
-156 9 0
-156 -33 0
-156 25 0
-156 -77 0
-156 -23 0
156 -78 7 -10 32 83 -9 33 -25 77 23 0
-157 -96 0
-157 44 0
-157 -65 0
-157 87 0
-157 -64 0
-157 -31 0
-157 -17 0
-157 -74 0
-157 -54 0
-157 -11 0
157 96 -44 65 -87 64 31 17 74 54 11 0
-158 -45 0
-158 -30 0
-158 6 0
-158 57 0
-158 -81 0
-158 55 0
-158 -89 0
-158 17 0
-158 72 0
-158 61 0
158 45 30 -6 -57 81 -55 89 -17 -72 -61 0
-159 -19 0
-159 22 0
-159 78 0
-159 55 0
-159 -46 0
-159 51 0
-159 -66 0
-159 -26 0
-159 -72 0
-159 76 0
159 19 -22 -78 -55 46 -51 66 26 72 -76 0
-160 77 0
-160 -98 0
-160 36 0
-160 -18 0
-160 29 0
-160 -19 0
-160 -4 0
-160 -54 0
-160 -10 0
-160 89 0
160 -77 98 -36 18 -29 19 4 54 10 -89 0
151 152 153 154 155 156 157 158 159 160 0
-161 -53 0
-161 72 0
-161 -2 0
-161 85 0
-161 -13 0
-161 95 0
-161 -100 0
-161 3 0
-161 -49 0
-161 21 0
161 53 -72 2 -85 13 -95 100 -3 49 -21 0
-162 23 0
-162 -5 0
-162 97 0
-162 3 0
-162 33 0
-162 -10 0
-162 36 0
-162 -99 0
-162 56 0
-162 66 0
162 -23 5 -97 -3 -33 10 -36 99 -56 -66 0
-163 -75 0
-163 -73 0
-163 9 0
-163 21 0
-163 -6 0
-163 47 0
-163 -95 0
-163 -68 0
-163 -42 0
-163 90 0
163 75 73 -9 -21 6 -47 95 68 42 -90 0
-164 29 0
-164 30 0
-164 -79 0
-164 50 0
-164 67 0
-164 39 0
-164 36 0
-164 -57 0
-164 -66 0
-164 100 0
164 -29 -30 79 -50 -67 -39 -36 57 66 -100 0
-165 -29 0
-165 24 0
-165 -62 0
-165 73 0
-165 -7 0
-165 -52 0
-165 2 0
-165 -49 0
-165 -4 0
-165 41 0
165 29 -24 62 -73 7 52 -2 49 4 -41 0
-166 80 0
-166 -82 0
-166 -30 0
-166 -2 0
-166 -16 0
-166 -65 0
-166 -56 0
-166 -39 0
-166 77 0
-166 37 0
166 -80 82 30 2 16 65 56 39 -77 -37 0
-167 40 0
-167 -81 0
-167 4 0
-167 -41 0
-167 -37 0
-167 53 0
-167 -74 0
-167 97 0
-167 -15 0
-167 -21 0
167 -40 81 -4 41 37 -53 74 -97 15 21 0
-168 18 0
-168 -16 0
-168 -37 0
-168 12 0
-168 -40 0
-168 84 0
-168 9 0
-168 90 0
-168 -62 0
-168 36 0
168 -18 16 37 -12 40 -84 -9 -90 62 -36 0
-169 84 0
-169 97 0
-169 78 0
-169 9 0
-169 -21 0
-169 -41 0
-169 61 0
-169 29 0
-169 -66 0
-169 40 0
169 -84 -97 -78 -9 21 41 -61 -29 66 -40 0
-170 58 0
-170 -82 0
-170 -18 0
-170 66 0
-170 41 0
-170 -19 0
-170 -44 0
-170 89 0
-170 -48 0
-170 -53 0
170 -58 82 18 -66 -41 19 44 -89 48 53 0
161 162 163 164 165 166 167 168 169 170 0
-171 -39 0
-171 23 0
-171 -1 0
-171 -61 0
-171 -78 0
-171 -95 0
-171 73 0
-171 37 0
-171 -25 0
-171 -24 0
171 39 -23 1 61 78 95 -73 -37 25 24 0
-172 26 0
-172 15 0
-172 78 0
-172 12 0
-172 96 0
-172 63 0
-172 -99 0
-172 -68 0
-172 -81 0
-172 -65 0
172 -26 -15 -78 -12 -96 -63 99 68 81 65 0
-173 89 0
-173 37 0
-173 -32 0
-173 -4 0
-173 -23 0
-173 -60 0
-173 -45 0
-173 61 0
-173 -35 0
-173 -43 0
173 -89 -37 32 4 23 60 45 -61 35 43 0
-174 -49 0
-174 -88 0
-174 69 0
-174 53 0
-174 -60 0
-174 61 0
-174 89 0
-174 98 0
-174 -97 0
-174 -96 0
174 49 88 -69 -53 60 -61 -89 -98 97 96 0
-175 21 0
-175 16 0
-175 -3 0
-175 22 0
-175 60 0
-175 -25 0
-175 -39 0
-175 81 0
-175 87 0
-175 -47 0
175 -21 -16 3 -22 -60 25 39 -81 -87 47 0
-176 -87 0
-176 91 0
-176 -23 0
-176 79 0
-176 16 0
-176 83 0
-176 -41 0
-176 1 0
-176 5 0
-176 65 0
176 87 -91 23 -79 -16 -83 41 -1 -5 -65 0
-177 4 0
-177 -63 0
-177 69 0
-177 -66 0
-177 15 0
-177 97 0
-177 -56 0
-177 61 0
-177 60 0
-177 46 0
177 -4 63 -69 66 -15 -97 56 -61 -60 -46 0
-178 -90 0
-178 67 0
-178 13 0
-178 97 0
-178 -94 0
-178 72 0
-178 53 0
-178 -36 0
-178 -28 0
-178 98 0
178 90 -67 -13 -97 94 -72 -53 36 28 -98 0
-179 -51 0
-179 91 0
-179 83 0
-179 84 0
-179 -14 0
-179 -10 0
-179 -47 0
-179 -1 0
-179 -15 0
-179 59 0
179 51 -91 -83 -84 14 10 47 1 15 -59 0
-180 -67 0
-180 -85 0
-180 18 0
-180 -60 0
-180 -27 0
-180 -15 0
-180 21 0
-180 -90 0
-180 31 0
-180 96 0
180 67 85 -18 60 27 15 -21 90 -31 -96 0
171 172 173 174 175 176 177 178 179 180 0
-181 76 0
-181 24 0
-181 82 0
-181 -2 0
-181 -84 0
-181 79 0
-181 -65 0
-181 21 0
-181 46 0
-181 44 0
181 -76 -24 -82 2 84 -79 65 -21 -46 -44 0
-182 -39 0
-182 -22 0
-182 48 0
-182 -5 0
-182 -97 0
-182 -41 0
-182 -65 0
-182 9 0
-182 24 0
-182 10 0
182 39 22 -48 5 97 41 65 -9 -24 -10 0
-183 -28 0
-183 -79 0
-183 38 0
-183 53 0
-183 63 0
-183 67 0
-183 13 0
-183 -83 0
-183 21 0
-183 -39 0
183 28 79 -38 -53 -63 -67 -13 83 -21 39 0
-184 82 0
-184 26 0
-184 -31 0
-184 -94 0
-184 -19 0
-184 -11 0
-184 -30 0
-184 68 0
-184 -33 0
-184 -47 0
184 -82 -26 31 94 19 11 30 -68 33 47 0
-185 91 0
-185 -32 0
-185 -26 0
-185 46 0
-185 33 0
-185 -4 0
-185 -8 0
-185 34 0
-185 98 0
-185 -44 0
185 -91 32 26 -46 -33 4 8 -34 -98 44 0
-186 16 0
-186 -5 0
-186 6 0
-186 22 0
-186 -43 0
-186 -83 0
-186 -26 0
-186 -19 0
-186 -79 0
-186 35 0
186 -16 5 -6 -22 43 83 26 19 79 -35 0
-187 -77 0
-187 40 0
-187 50 0
-187 2 0
-187 90 0
-187 -62 0
-187 -66 0
-187 -96 0
-187 -64 0
-187 6 0
187 77 -40 -50 -2 -90 62 66 96 64 -6 0
-188 39 0
-188 32 0
-188 72 0
-188 24 0
-188 -20 0
-188 96 0
-188 18 0
-188 56 0
-188 -85 0
-188 50 0
188 -39 -32 -72 -24 20 -96 -18 -56 85 -50 0
-189 3 0
-189 -36 0
-189 -93 0
-189 87 0
-189 80 0
-189 2 0
-189 61 0
-189 27 0
-189 81 0
-189 -96 0
189 -3 36 93 -87 -80 -2 -61 -27 -81 96 0
-190 -72 0
-190 67 0
-190 -42 0
-190 19 0
-190 -100 0
-190 -57 0
-190 -41 0
-190 14 0
-190 -3 0
-190 76 0
190 72 -67 42 -19 100 57 41 -14 3 -76 0
181 182 183 184 185 186 187 188 189 190 0
-191 51 0
-191 -8 0
-191 61 0
-191 -85 0
-191 -54 0
-191 55 0
-191 -3 0
-191 29 0
-191 -25 0
-191 -19 0
191 -51 8 -61 85 54 -55 3 -29 25 19 0
-192 -42 0
-192 34 0
-192 57 0
-192 72 0
-192 -30 0
-192 87 0
-192 31 0
-192 50 0
-192 -90 0
-192 -89 0
192 42 -34 -57 -72 30 -87 -31 -50 90 89 0
-193 26 0
-193 -73 0
-193 38 0
-193 -75 0
-193 -57 0
-193 67 0
-193 -97 0
-193 -43 0
-193 -79 0
-193 46 0
193 -26 73 -38 75 57 -67 97 43 79 -46 0
-194 -31 0
-194 79 0
-194 -5 0
-194 -17 0
-194 -99 0
-194 20 0
-194 -43 0
-194 -95 0
-194 81 0
-194 -77 0
194 31 -79 5 17 99 -20 43 95 -81 77 0
-195 -18 0
-195 32 0
-195 -52 0
-195 80 0
-195 -11 0
-195 89 0
-195 94 0
-195 76 0
-195 -34 0
-195 63 0
195 18 -32 52 -80 11 -89 -94 -76 34 -63 0
-196 31 0
-196 37 0
-196 83 0
-196 72 0
-196 77 0
-196 -71 0
-196 -97 0
-196 -84 0
-196 -22 0
-196 -75 0
196 -31 -37 -83 -72 -77 71 97 84 22 75 0
-197 57 0
-197 77 0
-197 71 0
-197 75 0
-197 90 0
-197 51 0
-197 -10 0
-197 50 0
-197 -92 0
-197 -17 0
197 -57 -77 -71 -75 -90 -51 10 -50 92 17 0
-198 13 0
-198 -25 0
-198 -4 0
-198 -57 0
-198 -65 0
-198 -10 0
-198 17 0
-198 -95 0
-198 15 0
-198 56 0
198 -13 25 4 57 65 10 -17 95 -15 -56 0
-199 -74 0
-199 42 0
-199 38 0
-199 -69 0
-199 77 0
-199 -92 0
-199 -22 0
-199 62 0
-199 -76 0
-199 -34 0
199 74 -42 -38 69 -77 92 22 -62 76 34 0
-200 93 0
-200 94 0
-200 -56 0
-200 -10 0
-200 -33 0
-200 35 0
-200 -80 0
-200 59 0
-200 88 0
-200 -39 0
200 -93 -94 56 10 33 -35 80 -59 -88 39 0
191 192 193 194 195 196 197 198 199 200 0
